Instance name:    bar-n100-6
Authors:          PDPTW Solver
Date:             2025-11-20
Reference:        LNS with SA/RTR
Solution
Route 1 : 22 72 43 34 12 84 93 42 62 92 18 68 13 26 45 63 76 49 99 95 15 33 83 46 96 65
Route 2 : 38 25 40 75 88 16 66 28 19 44 90 8 94 69 17 67 3 78 2 52 10 58 60 24 50 53 100 74
Route 3 : 29 20 70 79 41 91 6 47 97 56 30 48 11 98 9 80 59 21 71 35 85 14 61 64 39 27 77 36 89 86
Route 4 : 4 5 54 32 31 81 82 55 37 1 87 23 73 51 7 57
